p cnf 17 8
-9 -12 -7 0
10 4 0
-7 10 -6 -8 -3 -15 4 -1 16 5 -14 13 9 12 0
10 -11 17 -15 -14 -9 1 13 -12 -7 -5 0
-13 17 7 -6 2 -9 -8 -14 -1 3 11 16 15 12 5 4 0
3 17 -13 -10 14 4 -7 11 -2 -15 6 -16 -5 -1 8 0
3 -1 -8 9 -17 -11 -2 -12 15 5 -4 10 -7 0
-11 -9 -16 -14 -12 -5 -4 7 1 0
